jpf-symbc-bounded/src/examples/symbolicheap/bounded/bounddb/LinkedList-01.cnf
p cnf 58 73                 
-2 -1 -11 0
11 -13 0
1 2 -12 0
12 -13 0
-6 -5 -14 0
14 -16 0
5 6 -15 0
15 -16 0
-3 -4 17 0
-17 -26 0
-7 -8 18 0
-18 -20 0
7 8 -19 0
19 -20 0
20 -26 0
26 -28 0
3 4 -27 0
27 -28 0
-9 10 -29 0
7 -55 0
2 -22 0
10 -22 0
-2 -10 22 0
22 -55 0
-8 -22 54 0
55 -54 56 0
-56 -57 0
-1 -10 21 0
22 -21 30 0
-30 -53 0
3 -32 0
22 -32 0
-4 -22 31 0
32 -31 33 0
-33 -46 0
3 -4 36 0
-36 -37 0
7 -8 35 0
-35 -37 0
37 -41 0
-3 -8 38 0
-38 -40 0
3 -39 0
7 -39 0
39 -40 0
40 -41 0
41 -44 0
-4 -7 42 0
-42 -43 0
39 -43 0
43 -44 0
-22 44 -45 0
45 -46 0
46 -52 0
9 -47 0
10 -47 0
-9 -10 47 0
-47 22 -48 0
48 -51 0
22 -50 0
-22 47 -49 0
49 -50 0
50 -51 0
51 -52 0
52 -53 0
53 -57 0
9 0
10 0
13 0
16 0
28 0
29 0
57 0
